\ Model CapacityProblem
\ LP format - for model browsing. Use MPS format to capture full model detail.
Minimize
  150 C0 + 100 C1 + 2500 C2 + 300 C3 + 10 C4 + 200 C5 + 200 C6 + 200 C7
   + 200 C8 + 200 C9 + 200 C10 + 200 C11 + 200 C12 + 200 C13 + 200 C14
   + 200 C15 + 200 C16 + 200 C17 + 200 C18 + 200 C19 + 200 C20 + 200 C21
   + 200 C22 + 200 C23 + 200 C24 + 200 C25 + 200 C26 + 200 C27 + 200 C28
   + 250 C29 + 250 C30 + 250 C31 + 250 C32 + 250 C33 + 250 C34 + 250 C35
   + 250 C36 + 250 C37 + 250 C38 + 250 C39 + 250 C40 + 250 C41 + 250 C42
   + 250 C43 + 250 C44 + 250 C45 + 250 C46 + 250 C47 + 250 C48 + 250 C49
   + 250 C50 + 250 C51 + 250 C52 + 50 C53 + 50 C54 + 50 C55 + 50 C56
   + 50 C57 + 50 C58 + 50 C59 + 50 C60 + 50 C61 + 50 C62 + 50 C63 + 50 C64
   + 50 C65 + 50 C66 + 50 C67 + 50 C68 + 50 C69 + 50 C70 + 50 C71 + 50 C72
   + 50 C73 + 50 C74 + 50 C75 + 50 C76 + 10 C125 + 5e+07 C126
Subject To
 Capacity_limit_0: C0 <= 100
 Capacity_limit_1: C1 <= 100
 Capacity_limit_2: C2 <= 100
 Capacity_limit_3: C3 <= 10000
 Capacity_limit_4: C4 <= 10000
 Production_limit: - C0 + C5 <= 100
 Production_limit: - C0 + C6 <= 100
 Production_limit: - C0 + C7 <= 100
 Production_limit: - C0 + C8 <= 100
 Production_limit: - C0 + C9 <= 100
 Production_limit: - C0 + C10 <= 100
 Production_limit: - C0 + C11 <= 100
 Production_limit: - C0 + C12 <= 100
 Production_limit: - C0 + C13 <= 100
 Production_limit: - C0 + C14 <= 100
 Production_limit: - C0 + C15 <= 100
 Production_limit: - C0 + C16 <= 100
 Production_limit: - C0 + C17 <= 100
 Production_limit: - C0 + C18 <= 100
 Production_limit: - C0 + C19 <= 100
 Production_limit: - C0 + C20 <= 100
 Production_limit: - C0 + C21 <= 100
 Production_limit: - C0 + C22 <= 100
 Production_limit: - C0 + C23 <= 100
 Production_limit: - C0 + C24 <= 100
 Production_limit: - C0 + C25 <= 100
 Production_limit: - C0 + C26 <= 100
 Production_limit: - C0 + C27 <= 100
 Production_limit: - C0 + C28 <= 100
 Production_limit: - C1 + C29 <= 50
 Production_limit: - C1 + C30 <= 50
 Production_limit: - C1 + C31 <= 50
 Production_limit: - C1 + C32 <= 50
 Production_limit: - C1 + C33 <= 50
 Production_limit: - C1 + C34 <= 50
 Production_limit: - C1 + C35 <= 50
 Production_limit: - C1 + C36 <= 50
 Production_limit: - C1 + C37 <= 50
 Production_limit: - C1 + C38 <= 50
 Production_limit: - C1 + C39 <= 50
 Production_limit: - C1 + C40 <= 50
 Production_limit: - C1 + C41 <= 50
 Production_limit: - C1 + C42 <= 50
 Production_limit: - C1 + C43 <= 50
 Production_limit: - C1 + C44 <= 50
 Production_limit: - C1 + C45 <= 50
 Production_limit: - C1 + C46 <= 50
 Production_limit: - C1 + C47 <= 50
 Production_limit: - C1 + C48 <= 50
 Production_limit: - C1 + C49 <= 50
 Production_limit: - C1 + C50 <= 50
 Production_limit: - C1 + C51 <= 50
 Production_limit: - C1 + C52 <= 50
 Production_limit: - C2 + C53 <= 50
 Production_limit: - C2 + C54 <= 50
 Production_limit: - C2 + C55 <= 50
 Production_limit: - C2 + C56 <= 50
 Production_limit: - C2 + C57 <= 50
 Production_limit: - C2 + C58 <= 50
 Production_limit: - C2 + C59 <= 50
 Production_limit: - C2 + C60 <= 50
 Production_limit: - C2 + C61 <= 50
 Production_limit: - C2 + C62 <= 50
 Production_limit: - C2 + C63 <= 50
 Production_limit: - C2 + C64 <= 50
 Production_limit: - C2 + C65 <= 50
 Production_limit: - C2 + C66 <= 50
 Production_limit: - C2 + C67 <= 50
 Production_limit: - C2 + C68 <= 50
 Production_limit: - C2 + C69 <= 50
 Production_limit: - C2 + C70 <= 50
 Production_limit: - C2 + C71 <= 50
 Production_limit: - C2 + C72 <= 50
 Production_limit: - C2 + C73 <= 50
 Production_limit: - C2 + C74 <= 50
 Production_limit: - C2 + C75 <= 50
 Production_limit: - C2 + C76 <= 50
 Production_limit: - 0.0714911725992532 C3 + C77 <= 3.574558629962658
 Production_limit: - 0.2069065291105305 C3 + C78 <= 10.34532645552653
 Production_limit: - 0.1708954929494517 C3 + C79 <= 8.544774647472583
 Production_limit: - 0.1888199727706419 C3 + C80 <= 9.440998638532093
 Production_limit: - 0.2000536672291153 C3 + C81 <= 10.00268336145576
 Production_limit: - 0.3628271187605623 C3 + C82 <= 18.14135593802812
 Production_limit: - 0.4851625621195393 C3 + C83 <= 24.25812810597697
 Production_limit: - 0.609154052662755 C3 + C84 <= 30.45770263313775
 Production_limit: - 0.6635074058672907 C3 + C85 <= 33.17537029336454
 Production_limit: - 0.8744552242877893 C3 + C86 <= 43.72276121438946
 Production_limit: - 0.7799802294571636 C3 + C87 <= 38.99901147285818
 Production_limit: - 0.8414978281203519 C3 + C88 <= 42.07489140601759
 Production_limit: - 0.9364414827427749 C3 + C89 <= 46.82207413713875
 Production_limit: - 0.9645481320075096 C3 + C90 <= 48.22740660037547
 Production_limit: - 0.9312765663817734 C3 + C91 <= 46.56382831908867
 Production_limit: - 0.7834986690899264 C3 + C92 <= 39.17493345449632
 Production_limit: - 0.6829013245988148 C3 + C93 <= 34.14506622994074
 Production_limit: - 0.5967793277038156 C3 + C94 <= 29.83896638519078
 Production_limit: - 0.4073780665068157 C3 + C95 <= 20.36890332534078
 Production_limit: - 0.3310462336716434 C3 + C96 <= 16.55231168358217
 Production_limit: - 0.3307188253985499 C3 + C97 <= 16.53594126992749
 Production_limit: - 0.2449891323363117 C3 + C98 <= 12.24945661681558
 Production_limit: - 0.1011445772753432 C3 + C99 <= 5.05722886376716
 Production_limit: - 0.1382284334920441 C3 + C100 <= 6.911421674602207
 Production_limit: - 0.00315111159844444 C4 + C101 <= 0.3151111598444441
 Production_limit: - 0.00790705405159343 C4 + C102 <= 0.7907054051593434
 Production_limit: - 0.0183156388887342 C4 + C103 <= 1.831563888873418
 Production_limit: - 0.0391638950989871 C4 + C104 <= 3.916389509898706
 Production_limit: - 0.0773047404432997 C4 + C105 <= 7.730474044329972
 Production_limit: - 0.140858420921045 C4 + C106 <= 14.0858420921045
 Production_limit: - 0.2369277586821218 C4 + C107 <= 23.69277586821218
 Production_limit: - 0.3678794411714424 C4 + C108 <= 36.78794411714424
 Production_limit: - 0.5272924240430484 C4 + C109 <= 52.72924240430484
 Production_limit: - 0.697676326071031 C4 + C110 <= 69.76763260710311
 Production_limit: - 0.8521437889662112 C4 + C111 <= 85.21437889662113
 Production_limit: - 0.9607894391523233 C4 + C112 <= 96.07894391523233
 Production_limit: - C4 + C113 <= 100
 Production_limit: - 0.9607894391523233 C4 + C114 <= 96.07894391523233
 Production_limit: - 0.8521437889662112 C4 + C115 <= 85.21437889662113
 Production_limit: - 0.697676326071031 C4 + C116 <= 69.76763260710311
 Production_limit: - 0.5272924240430484 C4 + C117 <= 52.72924240430484
 Production_limit: - 0.3678794411714424 C4 + C118 <= 36.78794411714424
 Production_limit: - 0.2369277586821218 C4 + C119 <= 23.69277586821218
 Production_limit: - 0.140858420921045 C4 + C120 <= 14.0858420921045
 Production_limit: - 0.0773047404432997 C4 + C121 <= 7.730474044329972
 Production_limit: - 0.0391638950989871 C4 + C122 <= 3.916389509898706
 Production_limit: - 0.0183156388887342 C4 + C123 <= 1.831563888873418
 Production_limit: - 0.00790705405159343 C4 + C124 <= 0.7907054051593434
 Energy_balance: C5 + C29 + C53 + C77 + C101 - C175 - C199 + C223 + C247
   = 500
 Energy_balance: C6 + C30 + C54 + C78 + C102 - C176 - C200 + C224 + C248
   = 600
 Energy_balance: C7 + C31 + C55 + C79 + C103 - C177 - C201 + C225 + C249
   = 555
 Energy_balance: C8 + C32 + C56 + C80 + C104 - C178 - C202 + C226 + C250
   = 343
 Energy_balance: C9 + C33 + C57 + C81 + C105 - C179 - C203 + C227 + C251
   = 644
 Energy_balance: C10 + C34 + C58 + C82 + C106 - C180 - C204 + C228 + C252
   = 343
 Energy_balance: C11 + C35 + C59 + C83 + C107 - C181 - C205 + C229 + C253
   = 535
 Energy_balance: C12 + C36 + C60 + C84 + C108 - C182 - C206 + C230 + C254
   = 223
 Energy_balance: C13 + C37 + C61 + C85 + C109 - C183 - C207 + C231 + C255
   = 535
 Energy_balance: C14 + C38 + C62 + C86 + C110 - C184 - C208 + C232 + C256
   = 634
 Energy_balance: C15 + C39 + C63 + C87 + C111 - C185 - C209 + C233 + C257
   = 343
 Energy_balance: C16 + C40 + C64 + C88 + C112 - C186 - C210 + C234 + C258
   = 535
 Energy_balance: C17 + C41 + C65 + C89 + C113 - C187 - C211 + C235 + C259
   = 223
 Energy_balance: C18 + C42 + C66 + C90 + C114 - C188 - C212 + C236 + C260
   = 535
 Energy_balance: C19 + C43 + C67 + C91 + C115 - C189 - C213 + C237 + C261
   = 634
 Energy_balance: C20 + C44 + C68 + C92 + C116 - C190 - C214 + C238 + C262
   = 343
 Energy_balance: C21 + C45 + C69 + C93 + C117 - C191 - C215 + C239 + C263
   = 535
 Energy_balance: C22 + C46 + C70 + C94 + C118 - C192 - C216 + C240 + C264
   = 223
 Energy_balance: C23 + C47 + C71 + C95 + C119 - C193 - C217 + C241 + C265
   = 535
 Energy_balance: C24 + C48 + C72 + C96 + C120 - C194 - C218 + C242 + C266
   = 634
 Energy_balance: C25 + C49 + C73 + C97 + C121 - C195 - C219 + C243 + C267
   = 343
 Energy_balance: C26 + C50 + C74 + C98 + C122 - C196 - C220 + C244 + C268
   = 535
 Energy_balance: C27 + C51 + C75 + C99 + C123 - C197 - C221 + C245 + C269
   = 223
 Energy_balance: C28 + C52 + C76 + C100 + C124 - C198 - C222 + C246 + C270
   = 535
 RES_share: C77 + C78 + C79 + C80 + C81 + C82 + C83 + C84 + C85 + C86 + C87
   + C88 + C89 + C90 + C91 + C92 + C93 + C94 + C95 + C96 + C97 + C98 + C99
   + C100 + C101 + C102 + C103 + C104 + C105 + C106 + C107 + C108 + C109
   + C110 + C111 + C112 + C113 + C114 + C115 + C116 + C117 + C118 + C119
   + C120 + C121 + C122 + C123 + C124 >= 8870.4
 State_of_charge: - C127 + C128 - C175 + C223 = 0
 State_of_charge: - C128 + C129 - C176 + C224 = 0
 State_of_charge: - C129 + C130 - C177 + C225 = 0
 State_of_charge: - C130 + C131 - C178 + C226 = 0
 State_of_charge: - C131 + C132 - C179 + C227 = 0
 State_of_charge: - C132 + C133 - C180 + C228 = 0
 State_of_charge: - C133 + C134 - C181 + C229 = 0
 State_of_charge: - C134 + C135 - C182 + C230 = 0
 State_of_charge: - C135 + C136 - C183 + C231 = 0
 State_of_charge: - C136 + C137 - C184 + C232 = 0
 State_of_charge: - C137 + C138 - C185 + C233 = 0
 State_of_charge: - C138 + C139 - C186 + C234 = 0
 State_of_charge: - C139 + C140 - C187 + C235 = 0
 State_of_charge: - C140 + C141 - C188 + C236 = 0
 State_of_charge: - C141 + C142 - C189 + C237 = 0
 State_of_charge: - C142 + C143 - C190 + C238 = 0
 State_of_charge: - C143 + C144 - C191 + C239 = 0
 State_of_charge: - C144 + C145 - C192 + C240 = 0
 State_of_charge: - C145 + C146 - C193 + C241 = 0
 State_of_charge: - C146 + C147 - C194 + C242 = 0
 State_of_charge: - C147 + C148 - C195 + C243 = 0
 State_of_charge: - C148 + C149 - C196 + C244 = 0
 State_of_charge: - C149 + C150 - C197 + C245 = 0
 State_of_charge: - C151 + C152 - C199 + C247 = 0
 State_of_charge: - C152 + C153 - C200 + C248 = 0
 State_of_charge: - C153 + C154 - C201 + C249 = 0
 State_of_charge: - C154 + C155 - C202 + C250 = 0
 State_of_charge: - C155 + C156 - C203 + C251 = 0
 State_of_charge: - C156 + C157 - C204 + C252 = 0
 State_of_charge: - C157 + C158 - C205 + C253 = 0
 State_of_charge: - C158 + C159 - C206 + C254 = 0
 State_of_charge: - C159 + C160 - C207 + C255 = 0
 State_of_charge: - C160 + C161 - C208 + C256 = 0
 State_of_charge: - C161 + C162 - C209 + C257 = 0
 State_of_charge: - C162 + C163 - C210 + C258 = 0
 State_of_charge: - C163 + C164 - C211 + C259 = 0
 State_of_charge: - C164 + C165 - C212 + C260 = 0
 State_of_charge: - C165 + C166 - C213 + C261 = 0
 State_of_charge: - C166 + C167 - C214 + C262 = 0
 State_of_charge: - C167 + C168 - C215 + C263 = 0
 State_of_charge: - C168 + C169 - C216 + C264 = 0
 State_of_charge: - C169 + C170 - C217 + C265 = 0
 State_of_charge: - C170 + C171 - C218 + C266 = 0
 State_of_charge: - C171 + C172 - C219 + C267 = 0
 State_of_charge: - C172 + C173 - C220 + C268 = 0
 State_of_charge: - C173 + C174 - C221 + C269 = 0
 State_of_charge_0: C127 = 0
 State_of_charge_0: C151 = 0
 Storage_capacity_limit: - C125 + C127 <= 40
 Storage_capacity_limit: - C125 + C128 <= 40
 Storage_capacity_limit: - C125 + C129 <= 40
 Storage_capacity_limit: - C125 + C130 <= 40
 Storage_capacity_limit: - C125 + C131 <= 40
 Storage_capacity_limit: - C125 + C132 <= 40
 Storage_capacity_limit: - C125 + C133 <= 40
 Storage_capacity_limit: - C125 + C134 <= 40
 Storage_capacity_limit: - C125 + C135 <= 40
 Storage_capacity_limit: - C125 + C136 <= 40
 Storage_capacity_limit: - C125 + C137 <= 40
 Storage_capacity_limit: - C125 + C138 <= 40
 Storage_capacity_limit: - C125 + C139 <= 40
 Storage_capacity_limit: - C125 + C140 <= 40
 Storage_capacity_limit: - C125 + C141 <= 40
 Storage_capacity_limit: - C125 + C142 <= 40
 Storage_capacity_limit: - C125 + C143 <= 40
 Storage_capacity_limit: - C125 + C144 <= 40
 Storage_capacity_limit: - C125 + C145 <= 40
 Storage_capacity_limit: - C125 + C146 <= 40
 Storage_capacity_limit: - C125 + C147 <= 40
 Storage_capacity_limit: - C125 + C148 <= 40
 Storage_capacity_limit: - C125 + C149 <= 40
 Storage_capacity_limit: - C125 + C150 <= 40
 Storage_capacity_limit: - C126 + C151 <= 0
 Storage_capacity_limit: - C126 + C152 <= 0
 Storage_capacity_limit: - C126 + C153 <= 0
 Storage_capacity_limit: - C126 + C154 <= 0
 Storage_capacity_limit: - C126 + C155 <= 0
 Storage_capacity_limit: - C126 + C156 <= 0
 Storage_capacity_limit: - C126 + C157 <= 0
 Storage_capacity_limit: - C126 + C158 <= 0
 Storage_capacity_limit: - C126 + C159 <= 0
 Storage_capacity_limit: - C126 + C160 <= 0
 Storage_capacity_limit: - C126 + C161 <= 0
 Storage_capacity_limit: - C126 + C162 <= 0
 Storage_capacity_limit: - C126 + C163 <= 0
 Storage_capacity_limit: - C126 + C164 <= 0
 Storage_capacity_limit: - C126 + C165 <= 0
 Storage_capacity_limit: - C126 + C166 <= 0
 Storage_capacity_limit: - C126 + C167 <= 0
 Storage_capacity_limit: - C126 + C168 <= 0
 Storage_capacity_limit: - C126 + C169 <= 0
 Storage_capacity_limit: - C126 + C170 <= 0
 Storage_capacity_limit: - C126 + C171 <= 0
 Storage_capacity_limit: - C126 + C172 <= 0
 Storage_capacity_limit: - C126 + C173 <= 0
 Storage_capacity_limit: - C126 + C174 <= 0
 Energy_charged_limit: - C125 + C127 + C175 <= 40
 Energy_charged_limit: - C125 + C128 + C176 <= 40
 Energy_charged_limit: - C125 + C129 + C177 <= 40
 Energy_charged_limit: - C125 + C130 + C178 <= 40
 Energy_charged_limit: - C125 + C131 + C179 <= 40
 Energy_charged_limit: - C125 + C132 + C180 <= 40
 Energy_charged_limit: - C125 + C133 + C181 <= 40
 Energy_charged_limit: - C125 + C134 + C182 <= 40
 Energy_charged_limit: - C125 + C135 + C183 <= 40
 Energy_charged_limit: - C125 + C136 + C184 <= 40
 Energy_charged_limit: - C125 + C137 + C185 <= 40
 Energy_charged_limit: - C125 + C138 + C186 <= 40
 Energy_charged_limit: - C125 + C139 + C187 <= 40
 Energy_charged_limit: - C125 + C140 + C188 <= 40
 Energy_charged_limit: - C125 + C141 + C189 <= 40
 Energy_charged_limit: - C125 + C142 + C190 <= 40
 Energy_charged_limit: - C125 + C143 + C191 <= 40
 Energy_charged_limit: - C125 + C144 + C192 <= 40
 Energy_charged_limit: - C125 + C145 + C193 <= 40
 Energy_charged_limit: - C125 + C146 + C194 <= 40
 Energy_charged_limit: - C125 + C147 + C195 <= 40
 Energy_charged_limit: - C125 + C148 + C196 <= 40
 Energy_charged_limit: - C125 + C149 + C197 <= 40
 Energy_charged_limit: - C125 + C150 + C198 <= 40
 Energy_charged_limit: - C126 + C151 + C199 <= 0
 Energy_charged_limit: - C126 + C152 + C200 <= 0
 Energy_charged_limit: - C126 + C153 + C201 <= 0
 Energy_charged_limit: - C126 + C154 + C202 <= 0
 Energy_charged_limit: - C126 + C155 + C203 <= 0
 Energy_charged_limit: - C126 + C156 + C204 <= 0
 Energy_charged_limit: - C126 + C157 + C205 <= 0
 Energy_charged_limit: - C126 + C158 + C206 <= 0
 Energy_charged_limit: - C126 + C159 + C207 <= 0
 Energy_charged_limit: - C126 + C160 + C208 <= 0
 Energy_charged_limit: - C126 + C161 + C209 <= 0
 Energy_charged_limit: - C126 + C162 + C210 <= 0
 Energy_charged_limit: - C126 + C163 + C211 <= 0
 Energy_charged_limit: - C126 + C164 + C212 <= 0
 Energy_charged_limit: - C126 + C165 + C213 <= 0
 Energy_charged_limit: - C126 + C166 + C214 <= 0
 Energy_charged_limit: - C126 + C167 + C215 <= 0
 Energy_charged_limit: - C126 + C168 + C216 <= 0
 Energy_charged_limit: - C126 + C169 + C217 <= 0
 Energy_charged_limit: - C126 + C170 + C218 <= 0
 Energy_charged_limit: - C126 + C171 + C219 <= 0
 Energy_charged_limit: - C126 + C172 + C220 <= 0
 Energy_charged_limit: - C126 + C173 + C221 <= 0
 Energy_charged_limit: - C126 + C174 + C222 <= 0
 Energy_discharged_limit: - C127 + C223 <= 0
 Energy_discharged_limit: - C128 + C224 <= 0
 Energy_discharged_limit: - C129 + C225 <= 0
 Energy_discharged_limit: - C130 + C226 <= 0
 Energy_discharged_limit: - C131 + C227 <= 0
 Energy_discharged_limit: - C132 + C228 <= 0
 Energy_discharged_limit: - C133 + C229 <= 0
 Energy_discharged_limit: - C134 + C230 <= 0
 Energy_discharged_limit: - C135 + C231 <= 0
 Energy_discharged_limit: - C136 + C232 <= 0
 Energy_discharged_limit: - C137 + C233 <= 0
 Energy_discharged_limit: - C138 + C234 <= 0
 Energy_discharged_limit: - C139 + C235 <= 0
 Energy_discharged_limit: - C140 + C236 <= 0
 Energy_discharged_limit: - C141 + C237 <= 0
 Energy_discharged_limit: - C142 + C238 <= 0
 Energy_discharged_limit: - C143 + C239 <= 0
 Energy_discharged_limit: - C144 + C240 <= 0
 Energy_discharged_limit: - C145 + C241 <= 0
 Energy_discharged_limit: - C146 + C242 <= 0
 Energy_discharged_limit: - C147 + C243 <= 0
 Energy_discharged_limit: - C148 + C244 <= 0
 Energy_discharged_limit: - C149 + C245 <= 0
 Energy_discharged_limit: - C150 + C246 <= 0
 Energy_discharged_limit: - C151 + C247 <= 0
 Energy_discharged_limit: - C152 + C248 <= 0
 Energy_discharged_limit: - C153 + C249 <= 0
 Energy_discharged_limit: - C154 + C250 <= 0
 Energy_discharged_limit: - C155 + C251 <= 0
 Energy_discharged_limit: - C156 + C252 <= 0
 Energy_discharged_limit: - C157 + C253 <= 0
 Energy_discharged_limit: - C158 + C254 <= 0
 Energy_discharged_limit: - C159 + C255 <= 0
 Energy_discharged_limit: - C160 + C256 <= 0
 Energy_discharged_limit: - C161 + C257 <= 0
 Energy_discharged_limit: - C162 + C258 <= 0
 Energy_discharged_limit: - C163 + C259 <= 0
 Energy_discharged_limit: - C164 + C260 <= 0
 Energy_discharged_limit: - C165 + C261 <= 0
 Energy_discharged_limit: - C166 + C262 <= 0
 Energy_discharged_limit: - C167 + C263 <= 0
 Energy_discharged_limit: - C168 + C264 <= 0
 Energy_discharged_limit: - C169 + C265 <= 0
 Energy_discharged_limit: - C170 + C266 <= 0
 Energy_discharged_limit: - C171 + C267 <= 0
 Energy_discharged_limit: - C172 + C268 <= 0
 Energy_discharged_limit: - C173 + C269 <= 0
 Energy_discharged_limit: - C174 + C270 <= 0
Bounds
End
